c A SAT instance generated from a 3-CNF formula that had 40 clauses and 10 variables
p cnf 10 40
-9 6 -8 0
-3 -5 7 0
10 -3 -9 0
8 2 -6 0
-9 1 -10 0
2 1 -10 0
8 7 9 0
7 -1 2 0
-7 8 -9 0
-7 -9 3 0
-9 4 -5 0
3 9 7 0
3 5 9 0
-7 9 -8 0
-1 -10 7 0
10 -6 -4 0
1 10 3 0
5 3 -1 0
1 3 -5 0
4 2 -1 0
-5 -2 1 0
6 1 10 0
-6 5 2 0
-5 -2 -9 0
-7 1 -8 0
-1 9 -6 0
7 -10 -1 0
-1 -4 8 0
9 -5 -10 0
7 -10 -3 0
1 8 -2 0
-10 7 -9 0
-3 -5 -10 0
-4 -5 -6 0
3 7 5 0
-8 -9 1 0
-10 -1 6 0
-2 5 -6 0
9 5 8 0
-7 -3 4 0
